c description: Random 3-CNF over 15 variables and 15 clauses
c generator: CNFgen (0.9.0)
c copyright: (C) 2012-2020 Massimo Lauria <massimo.lauria@uniroma1.it>
c url: https://massimolauria.net/cnfgen
c
p cnf 15 15
-1 6 -14 0
2 -4 -13 0
3 5 -14 0
-1 8 -12 0
3 -7 11 0
1 9 -11 0
6 10 -14 0
-2 -4 -11 0
-5 -7 13 0
-5 -7 9 0
-8 -9 12 0
-1 8 -13 0
1 7 8 0
2 -7 -13 0
-10 -12 15 0